
Gurobi 7.0.2 (linux64, Matlab) logging started Sun Sep  2 08:38:00 2018


Gurobi 7.0.2 (linux64) logging started Sun Sep  2 08:38:00 2018

Optimize a model with 2109 rows, 3535 columns and 88915 nonzeros
Coefficient statistics:
  Matrix range     [2e-04, 1e+02]
  Objective range  [6e-05, 4e+02]
  Bounds range     [0e+00, 0e+00]
  RHS range        [4e-01, 5e+02]
Iteration    Objective       Primal Inf.    Dual Inf.      Time
       0    7.0284605e+03   0.000000e+00   0.000000e+00      0s

Solved in 0 iterations and 0.01 seconds
Optimal objective  7.028460511e+03
